Route #1: 50 21 82 87 78 28 62 94 20 101 92 57 100 54 9 88 53
Route #2: 59 4 107 95
Route #3: 42 10 35 99 49 109 18 93
Route #4: 106 3 79 47 73 64 26 34 85 112 29 52 111 13 46
Route #5: 72 102 61 103 33 97 76 55 80 38 77 58 113 12 45 65 23 81 31 56 69
Route #6: 36 11 70 24 98 63
Route #7: 71 37 1 90 7 74
Route #8: 110 84 40 67 39 68 43 14 83 8 75 114 30 44 27 105 15 32 66 17 89
Route #9: 104 16 108 48 19 51 22 96 2 91 25 41
Route #10: 6 60 86 5
Cost 16348
